200
500
350
350
350
349
348
347
346
346
345
345
343
342
342
340
339
338
337
337
335
335
334
334
332
332
331
329
327
325
325
324
322
321
320
319
319
318
317
317
316
312
312
312
309
308
307
305
303
303
302
301
297
295
294
293
291
288
288
288
288
285
285
280
280
276
268
268
266
262
260
258
254
253
249
247
244
239
237
236
236
234
232
230
229
228
228
228
226
226
225
224
219
219
219
218
216
213
213
211
211
211
211
210
209
207
201
201
197
197
195
193
193
192
190
188
188
188
186
185
184
184
178
177
174
173
172
171
167
167
166
165
163
161
161
156
155
154
153
150
149
146
142
141
141
141
140
137
133
132
132
130
130
129
122
122
121
120
119
118
115
112
112
111
110
107
107
106
105
105
104
103
103
100
99
99
98
98
97
95
94
91
91
91
90
86
85
84
82
81
76
74
73
71
71
69
66
63
57
57
53
50
